p edge 36 290
e 1 8 1
e 1 15 1
e 1 22 1
e 1 29 1
e 1 36 1
e 1 2 1
e 1 3 1
e 1 4 1
e 1 5 1
e 1 6 1
e 1 7 1
e 1 13 1
e 1 19 1
e 1 25 1
e 1 31 1
e 2 9 1
e 2 16 1
e 2 23 1
e 2 30 1
e 2 7 1
e 2 3 1
e 2 4 1
e 2 5 1
e 2 6 1
e 2 8 1
e 2 14 1
e 2 20 1
e 2 26 1
e 2 32 1
e 3 10 1
e 3 17 1
e 3 24 1
e 3 8 1
e 3 13 1
e 3 4 1
e 3 5 1
e 3 6 1
e 3 9 1
e 3 15 1
e 3 21 1
e 3 27 1
e 3 33 1
e 4 11 1
e 4 18 1
e 4 9 1
e 4 14 1
e 4 19 1
e 4 5 1
e 4 6 1
e 4 10 1
e 4 16 1
e 4 22 1
e 4 28 1
e 4 34 1
e 5 12 1
e 5 10 1
e 5 15 1
e 5 20 1
e 5 25 1
e 5 6 1
e 5 11 1
e 5 17 1
e 5 23 1
e 5 29 1
e 5 35 1
e 6 11 1
e 6 16 1
e 6 21 1
e 6 26 1
e 6 31 1
e 6 12 1
e 6 18 1
e 6 24 1
e 6 30 1
e 6 36 1
e 7 14 1
e 7 21 1
e 7 28 1
e 7 35 1
e 7 8 1
e 7 9 1
e 7 10 1
e 7 11 1
e 7 12 1
e 7 13 1
e 7 19 1
e 7 25 1
e 7 31 1
e 8 15 1
e 8 22 1
e 8 29 1
e 8 36 1
e 8 13 1
e 8 9 1
e 8 10 1
e 8 11 1
e 8 12 1
e 8 14 1
e 8 20 1
e 8 26 1
e 8 32 1
e 9 16 1
e 9 23 1
e 9 30 1
e 9 14 1
e 9 19 1
e 9 10 1
e 9 11 1
e 9 12 1
e 9 15 1
e 9 21 1
e 9 27 1
e 9 33 1
e 10 17 1
e 10 24 1
e 10 15 1
e 10 20 1
e 10 25 1
e 10 11 1
e 10 12 1
e 10 16 1
e 10 22 1
e 10 28 1
e 10 34 1
e 11 18 1
e 11 16 1
e 11 21 1
e 11 26 1
e 11 31 1
e 11 12 1
e 11 17 1
e 11 23 1
e 11 29 1
e 11 35 1
e 12 17 1
e 12 22 1
e 12 27 1
e 12 32 1
e 12 18 1
e 12 24 1
e 12 30 1
e 12 36 1
e 13 20 1
e 13 27 1
e 13 34 1
e 13 14 1
e 13 15 1
e 13 16 1
e 13 17 1
e 13 18 1
e 13 19 1
e 13 25 1
e 13 31 1
e 14 21 1
e 14 28 1
e 14 35 1
e 14 19 1
e 14 15 1
e 14 16 1
e 14 17 1
e 14 18 1
e 14 20 1
e 14 26 1
e 14 32 1
e 15 22 1
e 15 29 1
e 15 36 1
e 15 20 1
e 15 25 1
e 15 16 1
e 15 17 1
e 15 18 1
e 15 21 1
e 15 27 1
e 15 33 1
e 16 23 1
e 16 30 1
e 16 21 1
e 16 26 1
e 16 31 1
e 16 17 1
e 16 18 1
e 16 22 1
e 16 28 1
e 16 34 1
e 17 24 1
e 17 22 1
e 17 27 1
e 17 32 1
e 17 18 1
e 17 23 1
e 17 29 1
e 17 35 1
e 18 23 1
e 18 28 1
e 18 33 1
e 18 24 1
e 18 30 1
e 18 36 1
e 19 26 1
e 19 33 1
e 19 20 1
e 19 21 1
e 19 22 1
e 19 23 1
e 19 24 1
e 19 25 1
e 19 31 1
e 20 27 1
e 20 34 1
e 20 25 1
e 20 21 1
e 20 22 1
e 20 23 1
e 20 24 1
e 20 26 1
e 20 32 1
e 21 28 1
e 21 35 1
e 21 26 1
e 21 31 1
e 21 22 1
e 21 23 1
e 21 24 1
e 21 27 1
e 21 33 1
e 22 29 1
e 22 36 1
e 22 27 1
e 22 32 1
e 22 23 1
e 22 24 1
e 22 28 1
e 22 34 1
e 23 30 1
e 23 28 1
e 23 33 1
e 23 24 1
e 23 29 1
e 23 35 1
e 24 29 1
e 24 34 1
e 24 30 1
e 24 36 1
e 25 32 1
e 25 26 1
e 25 27 1
e 25 28 1
e 25 29 1
e 25 30 1
e 25 31 1
e 26 33 1
e 26 31 1
e 26 27 1
e 26 28 1
e 26 29 1
e 26 30 1
e 26 32 1
e 27 34 1
e 27 32 1
e 27 28 1
e 27 29 1
e 27 30 1
e 27 33 1
e 28 35 1
e 28 33 1
e 28 29 1
e 28 30 1
e 28 34 1
e 29 36 1
e 29 34 1
e 29 30 1
e 29 35 1
e 30 35 1
e 30 36 1
e 31 32 1
e 31 33 1
e 31 34 1
e 31 35 1
e 31 36 1
e 32 33 1
e 32 34 1
e 32 35 1
e 32 36 1
e 33 34 1
e 33 35 1
e 33 36 1
e 34 35 1
e 34 36 1
e 35 36 1